# 65716
param k := 6;
param n := 50;
param s := 1;
set E :=  (0,33) (0,37) (1,49) (2,48) (3,23) (4,9) (5,10) (5,12) (5,24) (5,40) (6,9) (6,20) (6,27) (7,22) (7,29) (7,32) (7,34) (7,46) (8,9) (8,28) (8,37) (8,46) (9,30) (10,35) (10,40) (10,49) (11,12) (11,48) (13,46) (14,43) (15,41) (16,30) (16,44) (17,35) (18,30) (19,20) (19,26) (19,47) (19,48) (20,41) (21,30) (22,45) (23,38) (23,40) (24,46) (25,44) (28,42) (31,34) (31,37) (36,46) (39,41) (43,49);